int NumberPatients = 74
int NumberOfRooms = 12
int NumberSurgeons = 3
int NumberOfDays = 6
Duration = [59,93,66,97,32,30,210,98,47,72,107,131,98,130,47,32,47,47,39,98,50,32,131,98,60,31,42,31,198,103,119,32,93,29,33,47,98,32,98,119,140,119,98,58,93,64,60,60,105,32,32,31,105,98,114,47,58,263,32,47,60,30,32,31,103,98,32,227,39,201,260,47,112,32];
Priority = [0,0,0,0,0,0,0,0,0,0,0,0,0,0,0,0,0,0,0,0,0,0,0,0,0,0,0,0,1,0,0,0,0,0,0,0,0,0,0,0,0,0,0,0,0,0,0,0,0,0,0,0,0,0,0,0,0,0,0,0,0,0,0,0,0,0,0,0,0,0,0,0,0,0];
Waiting = [120,275,45,73,478,198,35,56,261,49,134,37,199,85,39,361,79,64,107,106,79,60,24,37,102,66,23,66,59,43,85,63,66,141,205,183,49,280,73,21,21,84,84,73,49,79,305,78,375,190,120,37,45,35,39,375,248,116,417,113,74,39,79,155,164,45,84,23,56,78,74,66,121,60];
Surgeon = [5,3,3,15,4,2,2,3,4,1,6,6,2,6,5,1,3,6,6,2,10,5,2,4,11,7,1,2,4,1,2,7,6,15,6,10,2,7,1,9,7,5,8,1,6,4,5,5,5,6,5,4,8,9,7,1,4,5,7,3,2,6,3,1,4,6,4,10,4,6,2,1,3,1];
BlockAvailability = [[[0,0],[0,0],[1,0],[0,1],[0,0],[0,0],[0,1],[0,0],[0,0],[1,1],[0,0],[1,0]],[[0,0],[0,0],[0,0],[1,0],[0,0],[1,0],[1,1],[0,0],[1,0],[0,0],[0,0],[0,0]],[[1,1],[0,0],[0,0],[0,0],[0,0],[0,0],[1,0],[0,0],[0,0],[0,0],[0,0],[1,1]],[[0,0],[0,0],[0,0],[0,0],[0,0],[0,0],[0,0],[0,0],[0,1],[0,0],[0,1],[0,1]],[[0,1],[0,0],[0,0],[0,1],[0,0],[0,0],[1,0],[0,0],[0,0],[0,0],[0,0],[0,0]],[[0,0],[0,0],[1,1],[0,0],[0,0],[1,1],[0,0],[0,0],[1,0],[0,0],[0,0],[0,1]]];
SurgeonAvailability = [[[1,1],[1,1],[1,0],[0,1],[1,1],[1,1]],[[1,1],[1,0],[0,1],[1,1],[0,0],[1,1]],[[1,1],[1,0],[0,1],[1,1],[0,0],[1,1]]];
